##TITLE=BENZENE, METHYL-
##JCAMP-DX=4.24
##DATA TYPE=INFRARED SPECTRUM
##CLASS=COBLENTZ III
##ORIGIN=DOW CHEMICAL COMPANY
##OWNER=COBLENTZ SOCIETY
Collection (C) 2009 copyright by the U.S. Secretary of Commerce
on behalf of the United States of America. All rights reserved.
##DATE=1961/06/20
##NAMES=toluene
TOLUENE
##CAS REGISTRY NO=108-88-3
##MOLFORM=C7 H8
##SOURCE REFERENCE=COBLENTZ NO. 10130
##$NIST SOURCE=COBLENTZ
##$NIST IMAGE=cob10130
##SPECTROMETER/DATA SYSTEM=DOW KBr FOREPRISM-GRATING
##INSTRUMENT PARAMETERS=BLAZED AT 3.5, 12.0, 20.0 MICRON, CHANGED AT 5.0, 7.5, 14.9 MICRON
##STATE=SOLUTION (10% IN CCl4 FOR 3800-1330 AND 10% IN CS2 FOR 1330-450 CM^-^1)
##PATH LENGTH=0.011, 0.011 CM
$$SPECTRAL CONTAMINATION DUE TO CCl4 AROUND 1550, CS2 AROUND 855, AND AN UNKNOWN AROUND 3400 CM^-^1
$$ SEE SPECTRUM NO. 3374 FOR "LIQUID (NEAT)" STATE
##SAMPLING PROCEDURE=TRANSMISSION
##RESOLUTION=4
##DATA PROCESSING=DIGITIZED BY NIST FROM HARD COPY (FROM TWO SEGMENTS)
##XUNITS=1/CM
##YUNITS=TRANSMITTANCE
##XFACTOR=1.000000
##YFACTOR=1
##DELTAX=0.870576
##FIRSTX=443.413
##LASTX=3789.04
##FIRSTY=0.569
##MAXX=3789.04
##MINX=443.413
##MAXY=1.014
##MINY=0
##NPOINTS=3844
##XYDATA=(X++(Y..Y))
443.413000 0.5690 0.5670 0.5670 0.5660 0.5630
447.765882 0.5540 0.5510 0.5500 0.5430 0.5291
452.118763 0.5250 0.5160 0.5050 0.4950 0.4720
456.471645 0.4520 0.4261 0.4001 0.3831 0.3621
460.824527 0.3340 0.3020 0.2880 0.2700 0.2670
465.177408 0.2700 0.3009 0.3339 0.3619 0.4924
469.530290 0.5731 0.8039 0.8510 0.8800 0.8920
473.883172 0.9030 0.9140 0.9190 0.9210 0.9250
478.236054 0.9270 0.9320 0.9330 0.9360 0.9400
482.588935 0.9420 0.9440 0.9450 0.9470 0.9480
486.941817 0.9530 0.9530 0.9560 0.9570 0.9590
491.294699 0.9610 0.9640 0.9660 0.9670 0.9680
495.647580 0.9680 0.9700 0.9700 0.9700 0.9700
500.000462 0.9680 0.9700 0.9710 0.9710 0.9710
504.353344 0.9710 0.9710 0.9710 0.9710 0.9710
508.706225 0.9710 0.9710 0.9710 0.9710 0.9710
513.059107 0.9710 0.9700 0.9700 0.9700 0.9700
517.411989 0.9680 0.9660 0.9630 0.9570 0.9510
521.764871 0.9480 0.9490 0.9560 0.9660 0.9750
526.117752 0.9800 0.9820 0.9850 0.9860 0.9870
530.470634 0.9870 0.9900 0.9910 0.9930 0.9930
534.823516 0.9930 0.9930 0.9930 0.9940 0.9940
539.176397 0.9950 0.9970 0.9980 1.0000 1.0010
543.529279 1.0020 1.0050 1.0050 1.0080 1.0090
547.882161 1.0090 1.0100 1.0100 1.0100 1.0100
552.235042 1.0100 1.0120 1.0120 1.0120 1.0120
556.587924 1.0120 1.0120 1.0100 1.0100 1.0100
560.940806 1.0100 1.0100 1.0100 1.0100 1.0100
565.293687 1.0100 1.0100 1.0100 1.0100 1.0120
569.646569 1.0120 1.0120 1.0120 1.0120 1.0120
573.999451 1.0120 1.0120 1.0120 1.0120 1.0120
578.352333 1.0120 1.0120 1.0120 1.0120 1.0120
582.705214 1.0130 1.0130 1.0130 1.0130 1.0130
587.058096 1.0130 1.0130 1.0120 1.0100 1.0100
591.410978 1.0100 1.0100 1.0100 1.0100 1.0100
595.763859 1.0120 1.0120 1.0120 1.0130 1.0130
600.116741 1.0120 1.0120 1.0120 1.0100 1.0100
604.469623 1.0100 1.0100 1.0090 1.0090 1.0090
608.822504 1.0080 1.0080 1.0050 1.0020 1.0000
613.175386 0.9980 0.9980 0.9980 0.9980 0.9970
617.528268 0.9970 0.9930 0.9860 0.9850 0.9850
621.881149 0.9860 0.9870 0.9890 0.9890 0.9900
626.234031 0.9900 0.9900 0.9900 0.9900 0.9890
630.586913 0.9890 0.9890 0.9870 0.9860 0.9830
634.939795 0.9820 0.9780 0.9750 0.9740 0.9740
639.292676 0.9740 0.9710 0.9670 0.9640 0.9630
643.645558 0.9590 0.9530 0.9520 0.9470 0.9420
647.998440 0.9410 0.9370 0.9340 0.9330 0.9320
652.351321 0.9300 0.9300 0.9300 0.9320 0.9330
656.704203 0.9400 0.9410 0.9420 0.9450 0.9470
661.057085 0.9470 0.9450 0.9450 0.9450 0.9450
665.409966 0.9440 0.9440 0.9440 0.9420 0.9410
669.762848 0.9330 0.9220 0.9080 0.9060 0.9030
674.115730 0.9000 0.8950 0.8890 0.8691 0.8491
678.468612 0.8320 0.8240 0.8220 0.8160 0.8130
682.821493 0.8120 0.8110 0.8090 0.8020 0.7940
687.174375 0.7850 0.7600 0.7400 0.7010 0.6601
691.527257 0.5692 0.4793 0.3395 0.2055 0.0826
695.880138 0.0230 0.0080 0.0060 0.0080 0.1139
700.233020 0.1759 0.2289 0.3417 0.4656 0.5049
704.585902 0.5291 0.5820 0.6440 0.6770 0.7279
708.938783 0.7769 0.8089 0.8220 0.8230 0.8230
713.291665 0.8190 0.8130 0.8040 0.7890 0.7630
717.644547 0.7470 0.7320 0.7061 0.6950 0.6502
721.997428 0.5720 0.5540 0.4890 0.4101 0.2862
726.350310 0.1633 0.0394 0.0001 0.0000 0.0000
730.703192 0.0000 0.0000 0.0000 0.0000 0.0000
735.056074 0.0060 0.0190 0.0330 0.1048 0.1269
739.408955 0.2061 0.2920 0.3500 0.4419 0.4889
743.761837 0.5170 0.5539 0.6188 0.6579 0.6879
748.114719 0.7140 0.7370 0.7500 0.7920 0.8040
752.467600 0.8260 0.8300 0.8410 0.8510 0.8679
756.820482 0.8810 0.8940 0.9100 0.9190 0.9290
761.173364 0.9340 0.9410 0.9480 0.9520 0.9550
765.526245 0.9590 0.9610 0.9640 0.9680 0.9710
769.879127 0.9740 0.9740 0.9750 0.9780 0.9790
774.232009 0.9790 0.9790 0.9790 0.9790 0.9790
778.584890 0.9790 0.9790 0.9790 0.9780 0.9780
782.937772 0.9750 0.9740 0.9740 0.9700 0.9660
787.290654 0.9590 0.9520 0.9410 0.9360 0.9410
791.643536 0.9630 0.9750 0.9800 0.9830 0.9870
795.996417 0.9890 0.9900 0.9900 0.9900 0.9900
800.349299 0.9900 0.9910 0.9930 0.9930 0.9930
804.702181 0.9930 0.9930 0.9930 0.9930 0.9930
809.055062 0.9910 0.9910 0.9910 0.9910 0.9910
813.407944 0.9910 0.9910 0.9910 0.9910 0.9910
817.760826 0.9910 0.9910 0.9910 0.9910 0.9910
822.113707 0.9910 0.9900 0.9890 0.9870 0.9860
826.466589 0.9860 0.9850 0.9820 0.9790 0.9750
830.819471 0.9750 0.9700 0.9680 0.9660 0.9610
835.172353 0.9570 0.9520 0.9470 0.9420 0.9330
839.525234 0.9300 0.9190 0.9170 0.9110 0.9080
843.878116 0.9020 0.8960 0.8890 0.8830 0.8790
848.230998 0.8730 0.8690 0.8660 0.8570 0.8470
852.583879 0.8420 0.8350 0.8270 0.8200 0.8190
856.936761 0.8170 0.8170 0.8170 0.8170 0.8190
861.289643 0.8200 0.8230 0.8240 0.8260 0.8280
865.642524 0.8340 0.8360 0.8410 0.8490 0.8500
869.995406 0.8510 0.8550 0.8600 0.8640 0.8680
874.348288 0.8690 0.8720 0.8770 0.8810 0.8840
878.701169 0.8880 0.8910 0.8960 0.8990 0.9070
883.054051 0.9080 0.9100 0.9130 0.9180 0.9180
887.406933 0.9190 0.9190 0.9180 0.9180 0.9150
891.759815 0.9140 0.9100 0.8980 0.8880 0.8581
896.112696 0.8300 0.8260 0.8280 0.8540 0.8770
900.465578 0.9100 0.9370 0.9510 0.9610 0.9640
904.818460 0.9670 0.9700 0.9740 0.9740 0.9750
909.171341 0.9760 0.9790 0.9820 0.9850 0.9850
913.524223 0.9860 0.9860 0.9890 0.9900 0.9910
917.877105 0.9910 0.9910 0.9910 0.9910 0.9910
922.229986 0.9910 0.9910 0.9900 0.9900 0.9890
926.582868 0.9860 0.9830 0.9800 0.9800 0.9800
930.935750 0.9820 0.9830 0.9860 0.9860 0.9860
935.288631 0.9860 0.9850 0.9850 0.9830 0.9830
939.641513 0.9830 0.9820 0.9800 0.9780 0.9760
943.994395 0.9750 0.9740 0.9740 0.9720 0.9720
948.347277 0.9710 0.9700 0.9700 0.9680 0.9680
952.700158 0.9680 0.9680 0.9680 0.9670 0.9640
957.053040 0.9630 0.9630 0.9630 0.9610 0.9600
961.405922 0.9560 0.9550 0.9530 0.9530 0.9550
965.758803 0.9550 0.9560 0.9560 0.9570 0.9570
970.111685 0.9570 0.9560 0.9550 0.9550 0.9530
974.464567 0.9520 0.9520 0.9520 0.9520 0.9530
978.817448 0.9550 0.9550 0.9550 0.9550 0.9560
983.170330 0.9570 0.9590 0.9590 0.9600 0.9610
987.523212 0.9630 0.9660 0.9660 0.9660 0.9660
991.876094 0.9660 0.9660 0.9670 0.9670 0.9670
996.228975 0.9660 0.9660 0.9640 0.9630 0.9610
1000.581857 0.9610 0.9610 0.9600 0.9590 0.9590
1004.934739 0.9600 0.9610 0.9610 0.9630 0.9630
1009.287620 0.9630 0.9630 0.9630 0.9610 0.9590
1013.640502 0.9560 0.9560 0.9550 0.9530 0.9520
1017.993384 0.9480 0.9440 0.9420 0.9400 0.9320
1022.346265 0.9220 0.9110 0.9020 0.8910 0.8840
1026.699147 0.8720 0.8580 0.8320 0.8090 0.7820
1031.052029 0.7321 0.5594 0.4563 0.4550 0.5168
1035.404910 0.6253 0.7630 0.7740 0.7740 0.7710
1039.757792 0.7700 0.7690 0.7690 0.7700 0.7710
1044.110674 0.7750 0.7810 0.7860 0.7960 0.8110
1048.463556 0.8190 0.8300 0.8460 0.8580 0.8730
1052.816437 0.8850 0.8910 0.8990 0.9030 0.9110
1057.169319 0.9130 0.9150 0.9190 0.9230 0.9250
1061.522201 0.9260 0.9290 0.9290 0.9260 0.9260
1065.875082 0.9230 0.9210 0.9190 0.9130 0.9100
1070.227964 0.9080 0.8990 0.8890 0.8750 0.8660
1074.580846 0.8500 0.8360 0.8260 0.8040 0.7751
1078.933727 0.7539 0.7280 0.7159 0.6270 0.5850
1083.286609 0.5860 0.5990 0.6299 0.6869 0.7368
1087.639491 0.7861 0.8600 0.8890 0.9060 0.9250
1091.992372 0.9370 0.9450 0.9510 0.9510 0.9530
1096.345254 0.9530 0.9530 0.9530 0.9520 0.9520
1100.698136 0.9470 0.9410 0.9360 0.9270 0.9140
1105.051018 0.9040 0.8980 0.8980 0.9000 0.9140
1109.403899 0.9320 0.9450 0.9560 0.9670 0.9750
1113.756781 0.9790 0.9860 0.9900 0.9950 0.9970
1118.109663 1.0000 1.0010 1.0020 1.0040 1.0050
1122.462544 1.0050 1.0050 1.0040 1.0020 1.0010
1126.815426 1.0010 1.0000 1.0000 0.9980 0.9980
1131.168308 0.9970 0.9930 0.9930 0.9910 0.9910
1135.521189 0.9910 0.9900 0.9890 0.9850 0.9790
1139.874071 0.9760 0.9750 0.9720 0.9670 0.9640
1144.226953 0.9610 0.9610 0.9600 0.9570 0.9560
1148.579835 0.9520 0.9490 0.9440 0.9370 0.9330
1152.932716 0.9320 0.9300 0.9290 0.9270 0.9260
1157.285598 0.9250 0.9250 0.9260 0.9260 0.9270
1161.638480 0.9300 0.9320 0.9320 0.9330 0.9330
1165.991361 0.9330 0.9320 0.9320 0.9320 0.9300
1170.344243 0.9300 0.9300 0.9260 0.9220 0.9170
1174.697125 0.9100 0.9020 0.8870 0.8690 0.8260
1179.050006 0.8130 0.8130 0.8460 0.8580 0.8720
1183.402888 0.9000 0.9130 0.9250 0.9320 0.9360
1187.755770 0.9380 0.9410 0.9410 0.9420 0.9420
1192.108651 0.9410 0.9410 0.9410 0.9420 0.9450
1196.461533 0.9480 0.9520 0.9550 0.9560 0.9570
1200.814415 0.9570 0.9570 0.9570 0.9570 0.9560
1205.167297 0.9560 0.9530 0.9490 0.9480 0.9470
1209.520178 0.9440 0.9420 0.9440 0.9510 0.9560
1213.873060 0.9640 0.9700 0.9750 0.9790 0.9850
1218.225942 0.9860 0.9870 0.9890 0.9900 0.9910
1222.578823 0.9970 0.9970 0.9980 1.0010 1.0040
1226.931705 1.0060 1.0090 1.0090 1.0100 1.0120
1231.284587 1.0120 1.0120 1.0120 1.0120 1.0100
1235.637468 1.0100 1.0080 1.0060 1.0040 1.0020
1239.990350 1.0010 0.9980 0.9950 0.9940 0.9930
1244.343232 0.9910 0.9910 0.9900 0.9900 0.9900
1248.696113 0.9910 0.9930 0.9940 0.9940 0.9950
1253.048995 0.9950 0.9970 0.9970 0.9980 0.9980
1257.401877 0.9980 0.9980 0.9980 0.9980 0.9980
1261.754759 0.9980 0.9980 0.9980 0.9980 0.9980
1266.107640 0.9980 0.9980 0.9970 0.9970 0.9970
1270.460522 0.9950 0.9950 0.9950 0.9950 0.9950
1274.813404 0.9950 0.9950 0.9950 0.9950 0.9950
1279.166285 0.9950 0.9950 0.9950 0.9950 0.9950
1283.519167 0.9950 0.9950 0.9950 0.9940 0.9940
1287.872049 0.9940 0.9940 0.9930 0.9930 0.9900
1292.224930 0.9900 0.9900 0.9890 0.9870 0.9870
1296.577812 0.9860 0.9860 0.9850 0.9850 0.9830
1300.930694 0.9830 0.9830 0.9830 0.9850 0.9850
1305.283576 0.9830 0.9820 0.9780 0.9760 0.9750
1309.636457 0.9750 0.9710 0.9700 0.9700 0.9710
1313.989339 0.9710 0.9710 0.9720 0.9720 0.9720
1318.342221 0.9720 0.9720 0.9710 0.9700 0.9680
1322.695102 0.9670 0.9660 0.9640 0.9630 0.9610
1327.047984 0.9600 0.9570 0.9550 0.9550 0.9570
1331.400866 0.9590 0.9600 0.9600 0.9600 0.9600
1335.753747 0.9600 0.9600 0.9600 0.9590 0.9590
1340.106629 0.9590 0.9590 0.9590 0.9590 0.9590
1344.459511 0.9590 0.9570 0.9570 0.9560 0.9560
1348.812392 0.9550 0.9550 0.9550 0.9530 0.9530
1353.165274 0.9520 0.9520 0.9520 0.9480 0.9470
1357.518156 0.9450 0.9420 0.9410 0.9400 0.9360
1361.871038 0.9330 0.9320 0.9320 0.9300 0.9300
1366.223919 0.9300 0.9260 0.9230 0.9220 0.9210
1370.576801 0.9170 0.9130 0.9100 0.9100 0.9030
1374.929683 0.8990 0.8910 0.8790 0.8610 0.8490
1379.282564 0.8340 0.8270 0.7661 0.7251 0.7250
1383.635446 0.7551 0.7750 0.7831 0.8270 0.8680
1387.988328 0.8810 0.8910 0.8990 0.9100 0.9130
1392.341209 0.9210 0.9230 0.9260 0.9300 0.9320
1396.694091 0.9330 0.9330 0.9340 0.9340 0.9340
1401.046973 0.9340 0.9330 0.9330 0.9320 0.9320
1405.399854 0.9300 0.9290 0.9270 0.9260 0.9230
1409.752736 0.9210 0.9190 0.9170 0.9130 0.9110
1414.105618 0.9100 0.9060 0.9060 0.9030 0.9000
1418.458500 0.8950 0.8940 0.8920 0.8840 0.8750
1422.811381 0.8720 0.8690 0.8690 0.8640 0.8580
1427.164263 0.8540 0.8510 0.8500 0.8490 0.8470
1431.517145 0.8450 0.8420 0.8380 0.8350 0.8340
1435.870026 0.8300 0.8230 0.8190 0.8150 0.8110
1440.222908 0.8010 0.7900 0.7770 0.7630 0.7480
1444.575790 0.7320 0.7170 0.7070 0.6940 0.6820
1448.928671 0.6720 0.6630 0.6480 0.6330 0.6160
1453.281553 0.6010 0.5910 0.5770 0.5630 0.5540
1457.634435 0.5440 0.5330 0.5230 0.5100 0.5020
1461.987317 0.5010 0.5010 0.5010 0.5020 0.5060
1466.340198 0.5090 0.5120 0.5170 0.5250 0.5270
1470.693080 0.5360 0.5470 0.5670 0.5740 0.5860
1475.045962 0.6050 0.6270 0.6370 0.6460 0.6540
1479.398843 0.6640 0.6710 0.6790 0.6840 0.6920
1483.751725 0.6940 0.6940 0.6920 0.6910 0.6900
1488.104607 0.6840 0.6760 0.6720 0.6489 0.6050
1492.457488 0.5700 0.5550 0.5230 0.4851 0.4451
1496.810370 0.3788 0.3147 0.1798 0.0400 0.0440
1501.163252 0.1450 0.1710 0.2060 0.3158 0.3918
1505.516133 0.4741 0.5231 0.5771 0.6180 0.6520
1509.869015 0.6710 0.6770 0.6820 0.6830 0.6830
1514.221897 0.6830 0.6820 0.6820 0.6790 0.6770
1518.574779 0.6750 0.6730 0.6710 0.6670 0.6610
1522.927660 0.6600 0.6569 0.6350 0.6180 0.6050
1527.280542 0.5950 0.5950 0.5990 0.6050 0.6110
1531.633424 0.6110 0.6100 0.6070 0.6040 0.6010
1535.986305 0.5930 0.5880 0.5770 0.5700 0.5650
1540.339187 0.5610 0.5480 0.5390 0.5350 0.5240
1544.692069 0.5140 0.5100 0.5020 0.5000 0.4980
1549.044950 0.4900 0.4870 0.4850 0.4830 0.4820
1553.397832 0.4820 0.4830 0.4830 0.4860 0.4890
1557.750714 0.4970 0.4980 0.5000 0.5100 0.5240
1562.103595 0.5350 0.5430 0.5470 0.5480 0.5520
1566.456477 0.5590 0.5610 0.5630 0.5690 0.5730
1570.809359 0.5740 0.5800 0.5920 0.5990 0.6000
1575.162241 0.6030 0.6100 0.6190 0.6300 0.6390
1579.515122 0.6450 0.6490 0.6500 0.6530 0.6540
1583.868004 0.6560 0.6560 0.6570 0.6570 0.6560
1588.220886 0.6560 0.6570 0.6580 0.6640 0.6720
1592.573767 0.6870 0.6910 0.6970 0.6980 0.6980
1596.926649 0.6980 0.6950 0.6940 0.6910 0.6830
1601.279531 0.6749 0.6539 0.6300 0.6079 0.5660
1605.632412 0.5230 0.4860 0.3831 0.3830 0.4469
1609.985294 0.4570 0.4723 0.5992 0.7131 0.7660
1614.338176 0.8000 0.8260 0.8410 0.8490 0.8540
1618.691058 0.8570 0.8580 0.8580 0.8600 0.8600
1623.043939 0.8600 0.8600 0.8600 0.8610 0.8620
1627.396821 0.8660 0.8720 0.8810 0.8870 0.8990
1631.749703 0.9080 0.9150 0.9220 0.9290 0.9300
1636.102584 0.9320 0.9340 0.9360 0.9360 0.9360
1640.455466 0.9360 0.9370 0.9380 0.9410 0.9420
1644.808348 0.9440 0.9440 0.9440 0.9440 0.9440
1649.161229 0.9450 0.9450 0.9480 0.9520 0.9550
1653.514111 0.9550 0.9560 0.9560 0.9550 0.9550
1657.866993 0.9550 0.9560 0.9570 0.9590 0.9610
1662.219874 0.9630 0.9630 0.9660 0.9680 0.9710
1666.572756 0.9740 0.9750 0.9750 0.9750 0.9750
1670.925638 0.9750 0.9750 0.9750 0.9750 0.9740
1675.278520 0.9740 0.9720 0.9720 0.9710 0.9700
1679.631401 0.9700 0.9710 0.9710 0.9720 0.9740
1683.984283 0.9740 0.9750 0.9750 0.9750 0.9750
1688.337165 0.9750 0.9760 0.9780 0.9780 0.9760
1692.690046 0.9760 0.9760 0.9760 0.9750 0.9750
1697.042928 0.9750 0.9750 0.9750 0.9750 0.9760
1701.395810 0.9780 0.9780 0.9780 0.9760 0.9780
1705.748691 0.9800 0.9800 0.9800 0.9800 0.9800
1710.101573 0.9820 0.9820 0.9820 0.9820 0.9820
1714.454455 0.9820 0.9800 0.9800 0.9800 0.9800
1718.807337 0.9800 0.9800 0.9800 0.9790 0.9780
1723.160218 0.9780 0.9760 0.9750 0.9740 0.9740
1727.513100 0.9710 0.9700 0.9670 0.9630 0.9590
1731.865982 0.9550 0.9520 0.9480 0.9450 0.9410
1736.218863 0.9360 0.9330 0.9320 0.9330 0.9360
1740.571745 0.9370 0.9420 0.9530 0.9550 0.9600
1744.924627 0.9660 0.9710 0.9750 0.9760 0.9780
1749.277508 0.9780 0.9820 0.9830 0.9850 0.9850
1753.630390 0.9850 0.9850 0.9850 0.9850 0.9850
1757.983272 0.9850 0.9830 0.9820 0.9820 0.9800
1762.336153 0.9800 0.9800 0.9800 0.9800 0.9790
1766.689035 0.9790 0.9780 0.9780 0.9760 0.9760
1771.041917 0.9760 0.9760 0.9760 0.9760 0.9780
1775.394799 0.9780 0.9750 0.9750 0.9740 0.9740
1779.747680 0.9720 0.9720 0.9710 0.9710 0.9710
1784.100562 0.9710 0.9710 0.9710 0.9700 0.9680
1788.453444 0.9670 0.9660 0.9660 0.9640 0.9610
1792.806325 0.9600 0.9600 0.9570 0.9560 0.9530
1797.159207 0.9490 0.9420 0.9370 0.9340 0.9290
1801.512089 0.9110 0.9000 0.8960 0.8880 0.8790
1805.864970 0.8790 0.8800 0.8810 0.8850 0.8910
1810.217852 0.8951 0.9110 0.9270 0.9330 0.9370
1814.570734 0.9440 0.9510 0.9530 0.9550 0.9550
1818.923615 0.9550 0.9550 0.9550 0.9550 0.9550
1823.276497 0.9550 0.9550 0.9550 0.9550 0.9560
1827.629379 0.9570 0.9600 0.9640 0.9640 0.9670
1831.982261 0.9680 0.9700 0.9700 0.9710 0.9710
1836.335142 0.9710 0.9710 0.9710 0.9710 0.9720
1840.688024 0.9740 0.9740 0.9740 0.9710 0.9700
1845.040906 0.9680 0.9670 0.9640 0.9610 0.9590
1849.393787 0.9560 0.9550 0.9520 0.9470 0.9360
1853.746669 0.9320 0.9260 0.9130 0.9000 0.8910
1858.099551 0.8730 0.8650 0.8510 0.8500 0.8510
1862.452432 0.8570 0.8681 0.8870 0.8990 0.9140
1866.805314 0.9290 0.9300 0.9320 0.9300 0.9300
1871.158196 0.9290 0.9260 0.9230 0.9180 0.9100
1875.511078 0.9080 0.9080 0.9100 0.9130 0.9210
1879.863959 0.9270 0.9400 0.9510 0.9560 0.9610
1884.216841 0.9660 0.9680 0.9700 0.9720 0.9740
1888.569723 0.9740 0.9750 0.9760 0.9780 0.9790
1892.922604 0.9790 0.9790 0.9790 0.9800 0.9800
1897.275486 0.9800 0.9820 0.9820 0.9800 0.9800
1901.628368 0.9780 0.9780 0.9790 0.9800 0.9820
1905.981249 0.9830 0.9830 0.9830 0.9830 0.9850
1910.334131 0.9850 0.9830 0.9830 0.9850 0.9850
1914.687013 0.9830 0.9830 0.9830 0.9830 0.9820
1919.039894 0.9800 0.9800 0.9790 0.9780 0.9780
1923.392776 0.9780 0.9780 0.9760 0.9760 0.9750
1927.745658 0.9740 0.9710 0.9700 0.9680 0.9660
1932.098540 0.9640 0.9630 0.9600 0.9550 0.9480
1936.451421 0.9410 0.9340 0.9270 0.9130 0.9000
1940.804303 0.8829 0.8619 0.8360 0.8350 0.8360
1945.157185 0.8380 0.8450 0.8540 0.8700 0.8850
1949.510066 0.8991 0.9210 0.9340 0.9340 0.9330
1953.862948 0.9330 0.9320 0.9320 0.9300 0.9290
1958.215830 0.9260 0.9220 0.9210 0.9250 0.9370
1962.568711 0.9450 0.9520 0.9520 0.9480 0.9480
1966.921593 0.9550 0.9610 0.9700 0.9750 0.9760
1971.274475 0.9780 0.9780 0.9780 0.9800 0.9800
1975.627356 0.9800 0.9820 0.9820 0.9820 0.9820
1979.980238 0.9800 0.9790 0.9780 0.9780 0.9780
1984.333120 0.9760 0.9760 0.9760 0.9760 0.9780
1988.686002 0.9780 0.9790 0.9800 0.9800 0.9820
1993.038883 0.9820 0.9820 0.9820 0.9820 0.9820
1997.391765 0.9820 0.9820 0.9820 0.9830 0.9935
2001.744647 1.0040 1.0040 1.0040 1.0040 1.0040
2006.097528 1.0040 1.0040 1.0030 1.0020 1.0020
2010.450410 1.0020 1.0020 1.0020 1.0015 1.0010
2014.803292 1.0005 1.0000 1.0000 1.0000 0.9990
2019.156173 0.9980 0.9975 0.9969 0.9949 0.9930
2023.509055 0.9935 0.9941 0.9976 1.0010 1.0015
2027.861937 1.0021 1.0041 1.0060 1.0075 1.0090
2032.214819 1.0095 1.0100 1.0110 1.0120 1.0125
2036.567700 1.0130 1.0130 1.0130 1.0135 1.0140
2040.920582 1.0140 1.0140 1.0130 1.0120 1.0110
2045.273464 1.0099 1.0079 1.0060 1.0050 1.0040
2049.626345 1.0040 1.0040 1.0029 1.0020 1.0020
2053.979227 1.0020 1.0020 1.0020 1.0020 1.0020
2058.332109 1.0020 1.0021 1.0031 1.0040 1.0045
2062.684990 1.0050 1.0055 1.0061 1.0071 1.0080
2067.037872 1.0080 1.0080 1.0085 1.0090 1.0090
2071.390754 1.0090 1.0090 1.0091 1.0095 1.0100
2075.743635 1.0100 1.0101 1.0111 1.0120 1.0120
2080.096517 1.0120 1.0120 1.0120 1.0120 1.0120
2084.449399 1.0120 1.0119 1.0109 1.0100 1.0100
2088.802281 1.0099 1.0094 1.0090 1.0090 1.0089
2093.155162 1.0084 1.0080 1.0080 1.0080 1.0080
2097.508044 1.0080 1.0080 1.0080 1.0080 1.0079
2101.860926 1.0069 1.0060 1.0060 1.0062 1.0077
2106.213807 1.0091 1.0096 1.0102 1.0117 1.0130
2110.566689 1.0130 1.0130 1.0130 1.0130 1.0130
2114.919571 1.0131 1.0136 1.0140 1.0140 1.0140
2119.272452 1.0140 1.0140 1.0140 1.0140 1.0140
2123.625334 1.0140 1.0140 1.0140 1.0140 1.0140
2127.978216 1.0140 1.0139 1.0134 1.0130 1.0130
2132.331097 1.0130 1.0130 1.0130 1.0130 1.0130
2136.683979 1.0130 1.0129 1.0124 1.0120 1.0120
2141.036861 1.0118 1.0108 1.0100 1.0100 1.0100
2145.389743 1.0100 1.0099 1.0094 1.0090 1.0090
2149.742624 1.0089 1.0084 1.0080 1.0080 1.0078
2154.095506 1.0068 1.0059 1.0054 1.0050 1.0050
2158.448388 1.0046 1.0026 1.0009 1.0004 0.9998
2162.801269 0.9988 0.9980 0.9980 0.9982 0.9992
2167.154151 1.0001 1.0006 1.0011 1.0016 1.0022
2171.507033 1.0032 1.0041 1.0046 1.0050 1.0050
2175.859914 1.0050 1.0050 1.0050 1.0050 1.0050
2180.212796 1.0050 1.0050 1.0050 1.0049 1.0044
2184.565678 1.0040 1.0040 1.0040 1.0040 1.0041
2188.918560 1.0046 1.0050 1.0050 1.0051 1.0056
2193.271441 1.0060 1.0060 1.0060 1.0060 1.0060
2197.624323 1.0060 1.0060 1.0060 1.0060 1.0060
2201.977205 1.0059 1.0054 1.0050 1.0050 1.0050
2206.330086 1.0050 1.0050 1.0050 1.0050 1.0050
2210.682968 1.0050 1.0050 1.0050 1.0050 1.0050
2215.035850 1.0050 1.0050 1.0050 1.0050 1.0050
2219.388731 1.0050 1.0050 1.0050 1.0050 1.0050
2223.741613 1.0050 1.0049 1.0044 1.0037 1.0027
2228.094495 1.0020 1.0020 1.0020 1.0020 1.0019
2232.447376 1.0014 1.0010 1.0010 1.0009 1.0004
2236.800258 1.0000 1.0000 1.0000 1.0000 0.9997
2241.153140 0.9987 0.9980 0.9980 0.9980 0.9980
2245.506022 0.9978 0.9973 0.9967 0.9957 0.9950
2249.858903 0.9950 0.9948 0.9943 0.9938 0.9933
2254.211785 0.9923 0.9903 0.9890 0.9890 0.9885
2258.564667 0.9870 0.9858 0.9853 0.9850 0.9850
2262.917548 0.9850 0.9850 0.9850 0.9850 0.9846
2267.270430 0.9836 0.9830 0.9830 0.9830 0.9830
2271.623312 0.9828 0.9823 0.9820 0.9820 0.9816
2275.976193 0.9806 0.9798 0.9793 0.9788 0.9783
2280.329075 0.9776 0.9766 0.9758 0.9753 0.9750
2284.681957 0.9750 0.9750 0.9750 0.9750 0.9750
2289.034838 0.9750 0.9750 0.9752 0.9757 0.9760
2293.387720 0.9760 0.9760 0.9760 0.9760 0.9760
2297.740602 0.9764 0.9774 0.9784 0.9794 0.9804
2302.093484 0.9814 0.9822 0.9827 0.9828 0.9823
2306.446365 0.9812 0.9792 0.9774 0.9759 0.9740
2310.799247 0.9715 0.9700 0.9700 0.9702 0.9707
2315.152129 0.9716 0.9731 0.9748 0.9768 0.9788
2319.505010 0.9808 0.9835 0.9870 0.9901 0.9926
2323.857892 0.9949 0.9969 0.9989 1.0009 1.0024
2328.210774 1.0034 1.0040 1.0040 1.0035 1.0026
2332.563655 1.0015 1.0006 1.0000 1.0000 1.0000
2336.916537 1.0000 1.0000 1.0000 1.0000 1.0000
2341.269419 1.0000 1.0000 1.0002 1.0007 1.0010
2345.622301 1.0010 1.0010 1.0010 1.0008 1.0003
2349.975182 1.0002 1.0007 1.0019 1.0039 1.0052
2354.328064 1.0057 1.0065 1.0075 1.0082 1.0087
2358.680946 1.0090 1.0090 1.0090 1.0090 1.0090
2363.033827 1.0090 1.0090 1.0090 1.0090 1.0090
2367.386709 1.0090 1.0090 1.0090 1.0090 1.0088
2371.739591 1.0083 1.0080 1.0080 1.0080 1.0080
2376.092472 1.0080 1.0080 1.0080 1.0080 1.0075
2380.445354 1.0065 1.0055 1.0045 1.0030 1.0010
2384.798236 0.9992 0.9977 0.9965 0.9955 0.9950
2389.151117 0.9950 0.9950 0.9950 0.9955 0.9965
2393.503999 0.9973 0.9978 0.9985 0.9995 1.0000
2397.856881 1.0000 0.9995 0.9985 0.9977 0.9972
2402.209763 0.9962 0.9947 0.9932 0.9917 0.9910
2406.562644 0.9910 0.9907 0.9902 0.9900 0.9900
2410.915526 0.9900 0.9900 0.9900 0.9900 0.9900
2415.268408 0.9900 0.9903 0.9908 0.9918 0.9933
2419.621289 0.9943 0.9948 0.9956 0.9966 0.9973
2423.974171 0.9978 0.9980 0.9980 0.9980 0.9980
2428.327053 0.9986 0.9996 1.0000 1.0000 1.0000
2432.679934 1.0000 1.0000 1.0000 1.0003 1.0008
2437.032816 1.0010 1.0010 1.0010 1.0010 1.0010
2441.385698 1.0010 1.0010 1.0010 1.0010 1.0010
2445.738579 1.0010 1.0010 1.0010 1.0010 1.0010
2450.091461 1.0010 1.0007 1.0002 0.9994 0.9984
2454.444343 0.9980 0.9980 0.9980 0.9980 0.9980
2458.797225 0.9980 0.9980 0.9980 0.9980 0.9980
2463.150106 0.9980 0.9980 0.9980 0.9980 0.9980
2467.502988 0.9980 0.9980 0.9980 0.9980 0.9980
2471.855870 0.9980 0.9980 0.9977 0.9972 0.9970
2476.208751 0.9970 0.9970 0.9970 0.9970 0.9970
2480.561633 0.9970 0.9970 0.9970 0.9970 0.9970
2484.914515 0.9970 0.9970 0.9970 0.9970 0.9970
2489.267396 0.9970 0.9970 0.9970 0.9970 0.9970
2493.620278 0.9970 0.9973 0.9978 0.9980 0.9980
2497.973160 0.9980 0.9980 0.9980 0.9980 0.9980
2502.326042 0.9980 0.9987 0.9997 1.0000 1.0000
2506.678923 1.0000 1.0000 1.0000 1.0000 1.0000
2511.031805 1.0000 1.0000 1.0000 1.0000 1.0000
2515.384687 1.0000 1.0000 1.0000 1.0000 0.9993
2519.737568 0.9983 0.9980 0.9980 0.9980 0.9980
2524.090450 0.9980 0.9980 0.9980 0.9980 0.9980
2528.443332 0.9980 0.9987 0.9997 1.0000 1.0000
2532.796213 0.9989 0.9974 0.9970 0.9970 0.9970
2537.149095 0.9970 0.9974 0.9979 0.9987 0.9997
2541.501977 1.0000 1.0000 0.9993 0.9983 0.9980
2545.854858 0.9980 0.9980 0.9980 0.9987 0.9997
2550.207740 1.0000 1.0000 0.9993 0.9983 0.9980
2554.560622 0.9980 0.9980 0.9980 0.9980 0.9980
2558.913504 0.9987 0.9997 1.0000 1.0000 0.9993
2563.266385 0.9983 0.9980 0.9980 0.9980 0.9980
2567.619267 0.9980 0.9980 0.9980 0.9980 0.9976
2571.972149 0.9971 0.9962 0.9952 0.9946 0.9941
2576.325030 0.9936 0.9931 0.9922 0.9912 0.9902
2580.677912 0.9892 0.9851 0.9801 0.9775 0.9755
2585.030794 0.9746 0.9741 0.9744 0.9749 0.9777
2589.383675 0.9812 0.9847 0.9883 0.9894 0.9899
2593.736557 0.9904 0.9909 0.9910 0.9910 0.9910
2598.089439 0.9910 0.9910 0.9910 0.9910 0.9910
2602.442320 0.9906 0.9901 0.9900 0.9900 0.9900
2606.795202 0.9900 0.9900 0.9900 0.9904 0.9909
2611.148084 0.9918 0.9928 0.9934 0.9939 0.9940
2615.500966 0.9940 0.9944 0.9949 0.9950 0.9950
2619.853847 0.9950 0.9950 0.9950 0.9950 0.9950
2624.206729 0.9950 0.9950 0.9950 0.9950 0.9950
2628.559611 0.9950 0.9950 0.9958 0.9968 0.9970
2632.912492 0.9970 0.9974 0.9979 0.9980 0.9980
2637.265374 0.9980 0.9980 0.9980 0.9980 0.9980
2641.618256 0.9980 0.9989 0.9999 0.9991 0.9981
2645.971137 0.9980 0.9980 0.9989 0.9999 1.0000
2650.324019 1.0000 1.0000 1.0000 1.0000 1.0000
2654.676901 0.9991 0.9981 0.9980 0.9980 0.9980
2659.029783 0.9980 0.9980 0.9980 0.9980 0.9980
2663.382664 0.9980 0.9980 0.9980 0.9980 0.9980
2667.735546 0.9980 0.9980 0.9980 0.9980 0.9980
2672.088428 0.9980 0.9980 0.9980 0.9980 0.9989
2676.441309 0.9999 0.9991 0.9981 0.9989 0.9999
2680.794191 1.0000 1.0000 1.0000 1.0000 1.0000
2685.147073 1.0000 1.0000 1.0000 1.0000 1.0000
2689.499954 1.0000 1.0000 1.0000 1.0000 1.0000
2693.852836 1.0000 0.9991 0.9981 0.9980 0.9980
2698.205718 0.9975 0.9970 0.9970 0.9970 0.9970
2702.558599 0.9970 0.9970 0.9970 0.9961 0.9951
2706.911481 0.9945 0.9940 0.9935 0.9930 0.9930
2711.264363 0.9930 0.9930 0.9930 0.9930 0.9930
2715.617245 0.9920 0.9910 0.9905 0.9900 0.9895
2719.970126 0.9890 0.9880 0.9870 0.9860 0.9850
2724.323008 0.9826 0.9801 0.9781 0.9761 0.9712
2728.675890 0.9662 0.9612 0.9561 0.9540 0.9520
2733.028771 0.9407 0.9292 0.9290 0.9290 0.9403
2737.381653 0.9518 0.9564 0.9609 0.9654 0.9699
2741.734535 0.9739 0.9779 0.9819 0.9859 0.9875
2746.087416 0.9890 0.9895 0.9900 0.9900 0.9900
2750.440298 0.9900 0.9900 0.9900 0.9900 0.9900
2754.793180 0.9900 0.9900 0.9900 0.9900 0.9900
2759.146062 0.9900 0.9900 0.9895 0.9890 0.9890
2763.498943 0.9890 0.9890 0.9890 0.9890 0.9890
2767.851825 0.9890 0.9890 0.9890 0.9890 0.9880
2772.204707 0.9870 0.9870 0.9870 0.9870 0.9870
2776.557588 0.9870 0.9870 0.9870 0.9870 0.9870
2780.910470 0.9870 0.9870 0.9870 0.9870 0.9870
2785.263352 0.9865 0.9860 0.9855 0.9850 0.9840
2789.616233 0.9830 0.9830 0.9830 0.9825 0.9820
2793.969115 0.9820 0.9819 0.9809 0.9800 0.9795
2798.321997 0.9790 0.9785 0.9779 0.9769 0.9760
2802.674878 0.9755 0.9749 0.9734 0.9719 0.9709
2807.027760 0.9700 0.9700 0.9700 0.9700 0.9699
2811.380642 0.9689 0.9680 0.9680 0.9680 0.9675
2815.733524 0.9670 0.9665 0.9659 0.9644 0.9629
2820.086405 0.9614 0.9599 0.9584 0.9569 0.9559
2824.439287 0.9549 0.9539 0.9530 0.9530 0.9528
2828.792169 0.9508 0.9488 0.9463 0.9437 0.9407
2833.145050 0.9377 0.9352 0.9328 0.9308 0.9286
2837.497932 0.9251 0.9215 0.9175 0.9133 0.9073
2841.850814 0.9012 0.8942 0.8875 0.8835 0.8794
2846.203695 0.8744 0.8694 0.8649 0.8601 0.8526
2850.556577 0.8445 0.8324 0.8210 0.8140 0.8064
2854.909459 0.7954 0.7846 0.7746 0.7649 0.7574
2859.262340 0.7481 0.7281 0.7098 0.7018 0.6947
2863.615222 0.6927 0.6901 0.6841 0.6786 0.6756
2867.968104 0.6729 0.6724 0.6719 0.6714 0.6710
2872.320986 0.6710 0.6711 0.6716 0.6721 0.6726
2876.673867 0.6732 0.6742 0.6757 0.6797 0.6840
2881.026749 0.6900 0.6963 0.7038 0.7108 0.7158
2885.379631 0.7207 0.7247 0.7288 0.7328 0.7373
2889.732512 0.7443 0.7509 0.7559 0.7603 0.7618
2894.085394 0.7631 0.7636 0.7640 0.7640 0.7639
2898.438276 0.7634 0.7627 0.7612 0.7591 0.7546
2902.791157 0.7496 0.7426 0.7369 0.7364 0.7340
2907.144039 0.7245 0.7161 0.7121 0.7046 0.6841
2911.496921 0.6627 0.6377 0.6131 0.5901 0.5689
2915.849803 0.5544 0.5358 0.5023 0.4686 0.4341
2920.202684 0.4067 0.4052 0.4042 0.4052 0.4066
2924.555566 0.4091 0.4123 0.4178 0.4238 0.4313
2928.908448 0.4401 0.4531 0.4683 0.4908 0.5100
2933.261329 0.5185 0.5282 0.5417 0.5550 0.5675
2937.614211 0.5774 0.5789 0.5800 0.5800 0.5795
2941.967093 0.5775 0.5757 0.5747 0.5735 0.5715
2946.319974 0.5699 0.5694 0.5685 0.5665 0.5647
2950.672856 0.5637 0.5633 0.5643 0.5657 0.5682
2955.025738 0.5709 0.5745 0.5777 0.5802 0.5834
2959.378619 0.5884 0.5951 0.6061 0.6168 0.6268
2963.731501 0.6357 0.6417 0.6470 0.6505 0.6540
2968.084383 0.6575 0.6601 0.6606 0.6610 0.6610
2972.437265 0.6609 0.6604 0.6597 0.6587 0.6580
2976.790146 0.6580 0.6583 0.6593 0.6600 0.6600
2981.143028 0.6605 0.6620 0.6636 0.6656 0.6684
2985.495910 0.6729 0.6769 0.6799 0.6822 0.6827
2989.848791 0.6853 0.6929 0.6982 0.6987 0.6993
2994.201673 0.7003 0.7010 0.7010 0.7007 0.6997
2998.554555 0.6977 0.6937 0.6895 0.6850 0.6792
3002.907436 0.6707 0.6630 0.6570 0.6518 0.6483
3007.260318 0.6448 0.6413 0.6376 0.6336 0.6284
3011.613200 0.6209 0.6137 0.6072 0.6004 0.5929
3015.966081 0.5847 0.5751 0.5635 0.5480 0.5276
3020.318963 0.4981 0.4661 0.4296 0.3986 0.3776
3024.671845 0.3556 0.3319 0.3074 0.2819 0.2512
3029.024727 0.2117 0.1868 0.1863 0.1862 0.1867
3033.377608 0.1915 0.2035 0.2163 0.2303 0.2465
3037.730490 0.2665 0.2890 0.3155 0.3456 0.3816
3042.083372 0.4149 0.4437 0.4714 0.4974 0.5192
3046.436253 0.5347 0.5490 0.5615 0.5700 0.5725
3050.789135 0.5740 0.5740 0.5732 0.5712 0.5692
3055.142017 0.5672 0.5644 0.5604 0.5560 0.5510
3059.494898 0.5454 0.5388 0.5318 0.5243 0.5168
3063.847780 0.5093 0.5029 0.4979 0.4948 0.4943
3068.200662 0.4946 0.4961 0.4987 0.5027 0.5088
3072.553544 0.5178 0.5264 0.5344 0.5559 0.5960
3076.906425 0.6286 0.6514 0.6649 0.6669 0.6678
3081.259307 0.6673 0.6650 0.6605 0.6549 0.6479
3085.612189 0.6400 0.6310 0.6202 0.6072 0.5819
3089.965070 0.5414 0.5150 0.5060 0.5010 0.5010
3094.317952 0.5037 0.5098 0.5432 0.6077 0.6638
3098.670834 0.7103 0.7434 0.7614 0.7848 0.8143
3103.023715 0.8305 0.8315 0.8315 0.8305 0.8295
3107.376597 0.8285 0.8285 0.8295 0.8314 0.8344
3111.729479 0.8441 0.8613 0.8754 0.8864 0.8947
3116.082360 0.9002 0.9050 0.9090 0.9137 0.9192
3120.435242 0.9247 0.9302 0.9360 0.9420 0.9477
3124.788124 0.9532 0.9585 0.9635 0.9675 0.9705
3129.141006 0.9737 0.9773 0.9800 0.9820 0.9840
3133.493887 0.9860 0.9875 0.9885 0.9893 0.9898
3137.846769 0.9903 0.9908 0.9915 0.9925 0.9933
3142.199651 0.9938 0.9940 0.9940 0.9943 0.9948
3146.552532 0.9950 0.9950 0.9950 0.9950 0.9950
3150.905414 0.9950 0.9950 0.9950 0.9950 0.9950
3155.258296 0.9950 0.9950 0.9950 0.9950 0.9950
3159.611177 0.9950 0.9950 0.9950 0.9947 0.9942
3163.964059 0.9940 0.9940 0.9940 0.9940 0.9940
3168.316941 0.9940 0.9943 0.9948 0.9958 0.9973
3172.669822 0.9988 1.0003 1.0010 1.0010 1.0010
3177.022704 1.0010 1.0013 1.0018 1.0020 1.0020
3181.375586 1.0020 1.0020 1.0017 1.0012 1.0010
3185.728468 1.0010 1.0010 1.0010 1.0007 1.0002
3190.081349 1.0000 1.0000 1.0003 1.0008 1.0010
3194.434231 1.0010 1.0010 1.0010 1.0010 1.0010
3198.787113 1.0007 1.0002 1.0003 1.0008 1.0010
3203.139994 1.0010 1.0010 1.0010 1.0010 1.0010
3207.492876 1.0010 1.0010 1.0010 1.0010 1.0010
3211.845758 1.0010 1.0010 1.0010 1.0010 1.0010
3216.198639 1.0010 1.0010 1.0010 1.0010 1.0010
3220.551521 1.0010 1.0010 1.0010 1.0007 1.0002
3224.904403 1.0000 1.0000 0.9994 0.9984 0.9980
3229.257285 0.9980 0.9980 0.9980 0.9980 0.9980
3233.610166 0.9980 0.9980 0.9980 0.9980 0.9980
3237.963048 0.9980 0.9977 0.9972 0.9970 0.9970
3242.315930 0.9970 0.9970 0.9970 0.9970 0.9963
3246.668811 0.9953 0.9950 0.9950 0.9950 0.9950
3251.021693 0.9950 0.9950 0.9950 0.9950 0.9950
3255.374575 0.9950 0.9947 0.9942 0.9940 0.9940
3259.727456 0.9940 0.9940 0.9940 0.9940 0.9940
3264.080338 0.9940 0.9940 0.9940 0.9940 0.9940
3268.433220 0.9940 0.9940 0.9940 0.9940 0.9940
3272.786101 0.9940 0.9940 0.9940 0.9940 0.9940
3277.138983 0.9940 0.9940 0.9936 0.9931 0.9930
3281.491865 0.9930 0.9930 0.9930 0.9923 0.9913
3285.844747 0.9906 0.9901 0.9900 0.9900 0.9900
3290.197628 0.9900 0.9896 0.9891 0.9890 0.9890
3294.550510 0.9890 0.9890 0.9890 0.9890 0.9894
3298.903392 0.9899 0.9900 0.9900 0.9900 0.9900
3303.256273 0.9900 0.9900 0.9896 0.9891 0.9890
3307.609155 0.9890 0.9890 0.9890 0.9890 0.9890
3311.962037 0.9890 0.9890 0.9890 0.9890 0.9890
3316.314918 0.9890 0.9890 0.9890 0.9883 0.9873
3320.667800 0.9866 0.9861 0.9856 0.9851 0.9850
3325.020682 0.9850 0.9850 0.9850 0.9850 0.9850
3329.373563 0.9842 0.9832 0.9826 0.9821 0.9820
3333.726445 0.9820 0.9820 0.9820 0.9820 0.9820
3338.079327 0.9820 0.9820 0.9812 0.9802 0.9800
3342.432209 0.9800 0.9800 0.9800 0.9808 0.9818
3346.785090 0.9820 0.9820 0.9824 0.9829 0.9830
3351.137972 0.9830 0.9826 0.9821 0.9812 0.9802
3355.490854 0.9800 0.9800 0.9796 0.9791 0.9786
3359.843735 0.9781 0.9780 0.9780 0.9772 0.9762
3364.196617 0.9760 0.9760 0.9756 0.9751 0.9750
3368.549499 0.9750 0.9746 0.9741 0.9740 0.9740
3372.902380 0.9740 0.9740 0.9740 0.9740 0.9740
3377.255262 0.9740 0.9732 0.9722 0.9720 0.9720
3381.608144 0.9716 0.9711 0.9706 0.9701 0.9700
3385.961026 0.9700 0.9692 0.9682 0.9680 0.9680
3390.313907 0.9680 0.9680 0.9680 0.9680 0.9680
3394.666789 0.9680 0.9689 0.9699 0.9700 0.9700
3399.019671 0.9700 0.9700 0.9700 0.9700 0.9700
3403.372552 0.9700 0.9704 0.9709 0.9710 0.9710
3407.725434 0.9710 0.9710 0.9710 0.9710 0.9714
3412.078316 0.9719 0.9720 0.9720 0.9720 0.9720
3416.431197 0.9720 0.9720 0.9729 0.9739 0.9740
3420.784079 0.9740 0.9740 0.9740 0.9740 0.9740
3425.136961 0.9740 0.9740 0.9740 0.9740 0.9740
3429.489842 0.9740 0.9740 0.9740 0.9740 0.9740
3433.842724 0.9740 0.9740 0.9740 0.9740 0.9740
3438.195606 0.9740 0.9745 0.9750 0.9750 0.9750
3442.548488 0.9750 0.9750 0.9755 0.9760 0.9760
3446.901369 0.9760 0.9774 0.9789 0.9790 0.9790
3451.254251 0.9804 0.9819 0.9820 0.9820 0.9825
3455.607133 0.9830 0.9830 0.9830 0.9830 0.9830
3459.960014 0.9839 0.9850 0.9855 0.9860 0.9860
3464.312896 0.9860 0.9865 0.9870 0.9880 0.9890
3468.665778 0.9895 0.9900 0.9900 0.9900 0.9900
3473.018659 0.9900 0.9905 0.9910 0.9910 0.9910
3477.371541 0.9920 0.9930 0.9930 0.9930 0.9930
3481.724423 0.9930 0.9935 0.9940 0.9940 0.9940
3486.077304 0.9940 0.9940 0.9945 0.9950 0.9950
3490.430186 0.9950 0.9950 0.9950 0.9950 0.9950
3494.783068 0.9950 0.9950 0.9960 0.9970 0.9970
3499.135950 0.9970 0.9970 0.9970 0.9970 0.9970
3503.488831 0.9970 0.9970 0.9970 0.9970 0.9970
3507.841713 0.9970 0.9970 0.9970 0.9970 0.9970
3512.194595 0.9975 0.9980 0.9990 1.0000 1.0000
3516.547476 1.0000 1.0000 1.0000 1.0005 1.0010
3520.900358 1.0010 1.0010 1.0010 1.0010 1.0015
3525.253240 1.0020 1.0020 1.0020 1.0020 1.0020
3529.606121 1.0020 1.0020 1.0031 1.0040 1.0040
3533.959003 1.0040 1.0040 1.0040 1.0045 1.0050
3538.311885 1.0050 1.0050 1.0055 1.0060 1.0060
3542.664767 1.0060 1.0060 1.0060 1.0060 1.0060
3547.017648 1.0060 1.0060 1.0060 1.0060 1.0060
3551.370530 1.0060 1.0060 1.0060 1.0060 1.0060
3555.723412 1.0060 1.0060 1.0060 1.0060 1.0060
3560.076293 1.0060 1.0060 1.0060 1.0060 1.0060
3564.429175 1.0060 1.0060 1.0060 1.0060 1.0060
3568.782057 1.0060 1.0060 1.0060 1.0060 1.0060
3573.134938 1.0060 1.0060 1.0060 1.0060 1.0060
3577.487820 1.0060 1.0060 1.0060 1.0060 1.0060
3581.840702 1.0060 1.0060 1.0060 1.0060 1.0060
3586.193583 1.0060 1.0060 1.0060 1.0060 1.0060
3590.546465 1.0060 1.0060 1.0060 1.0060 1.0060
3594.899347 1.0060 1.0060 1.0060 1.0060 1.0060
3599.252229 1.0060 1.0060 1.0060 1.0061 1.0071
3603.605110 1.0079 1.0069 1.0061 1.0071 1.0080
3607.957992 1.0080 1.0078 1.0063 1.0050 1.0050
3612.310874 1.0050 1.0050 1.0050 1.0050 1.0050
3616.663755 1.0050 1.0050 1.0050 1.0050 1.0050
3621.016637 1.0050 1.0050 1.0050 1.0050 1.0050
3625.369519 1.0050 1.0050 1.0050 1.0051 1.0056
3629.722400 1.0060 1.0060 1.0060 1.0060 1.0059
3634.075282 1.0054 1.0046 1.0026 1.0009 1.0004
3638.428164 0.9998 0.9988 0.9980 0.9980 0.9980
3642.781045 0.9980 0.9982 0.9992 1.0001 1.0006
3647.133927 1.0010 1.0010 1.0011 1.0016 1.0020
3651.486809 1.0020 1.0020 1.0020 1.0022 1.0032
3655.839691 1.0040 1.0040 1.0041 1.0046 1.0051
3660.192572 1.0056 1.0060 1.0060 1.0060 1.0060
3664.545454 1.0062 1.0072 1.0080 1.0080 1.0080
3668.898336 1.0080 1.0080 1.0080 1.0080 1.0080
3673.251217 1.0078 1.0068 1.0060 1.0060 1.0060
3677.604099 1.0060 1.0059 1.0054 1.0050 1.0050
3681.956981 1.0049 1.0044 1.0038 1.0028 1.0019
3686.309862 1.0014 1.0009 1.0004 1.0000 1.0000
3690.662744 1.0001 1.0006 1.0011 1.0016 1.0023
3695.015626 1.0033 1.0041 1.0046 1.0051 1.0056
3699.368508 1.0060 1.0060 1.0057 1.0047 1.0037
3703.721389 1.0027 1.0020 1.0020 1.0023 1.0033
3708.074271 1.0041 1.0046 1.0051 1.0056 1.0060
3712.427153 1.0060 1.0064 1.0079 1.0090 1.0090
3716.780034 1.0091 1.0096 1.0103 1.0113 1.0120
3721.132916 1.0120 1.0120 1.0120 1.0117 1.0107
3725.485798 1.0100 1.0100 1.0100 1.0100 1.0100
3729.838679 1.0100 1.0100 1.0100 1.0100 1.0100
3734.191561 1.0103 1.0113 1.0120 1.0120 1.0123
3738.544443 1.0133 1.0140 1.0140 1.0137 1.0127
3742.897324 1.0120 1.0120 1.0120 1.0120 1.0117
3747.250206 1.0107 1.0097 1.0087 1.0080 1.0080
3751.603088 1.0080 1.0080 1.0082 1.0087 1.0092
3755.955970 1.0097 1.0100 1.0100 1.0100 1.0100
3760.308851 1.0100 1.0100 1.0100 1.0100 1.0100
3764.661733 1.0100 1.0098 1.0093 1.0090 1.0090
3769.014615 1.0090 1.0090 1.0088 1.0083 1.0076
3773.367496 1.0066 1.0060 1.0060 1.0060 1.0060
3777.720378 1.0060 1.0060 1.0064 1.0074 1.0080
3782.073260 1.0080 1.0076 1.0066 1.0060 1.0060
3786.426141 1.0058 1.0053 1.0048 1.0043
##END=
